\ Model idol-model
\ LP format - for model browsing. Use MPS format to capture full model detail.
\ Signature: 0x6017d2bd5ae73411
Minimize
 
Subject To
 c_47: u_0 + u_1 + u_2 + u_3 + u_4 + u_5 + u_6 + u_7 + u_8 + u_9 + u_10
   + u_11 + u_12 + u_13 + u_14 <= 2
 c_48: y_0 + u_0 <= 1
 c_49: y_1 + u_1 <= 1
 c_50: y_2 + u_2 <= 1
 c_51: y_3 + u_3 <= 1
 c_52: y_4 + u_4 <= 1
 c_53: y_5 + u_5 <= 1
 c_54: y_6 + u_6 <= 1
 c_55: y_7 + u_7 <= 1
 c_56: y_8 + u_8 <= 1
 c_57: y_9 + u_9 <= 1
 c_58: y_10 + u_10 <= 1
 c_59: y_11 + u_11 <= 1
 c_60: y_12 + u_12 <= 1
 c_61: y_13 + u_13 <= 1
 c_62: y_14 + u_14 <= 1
Bounds
Binaries
 y_0 y_1 y_2 y_3 y_4 y_5 y_6 y_7 y_8 y_9 y_10 y_11 y_12 y_13 y_14 u_0 u_1
 u_2 u_3 u_4 u_5 u_6 u_7 u_8 u_9 u_10 u_11 u_12 u_13 u_14
End
